\ Model Master Problem
\ LP format - for model browsing. Use MPS format to capture full model detail.
Minimize
  1000 slack[0] + 1000 slack[1] + 1000 slack[2] + 1000 slack[3]
   + 1000 slack[4] + 1000 slack[5] + 1000 slack[6] + 1000 slack[7]
   + 1000 slack[8] + 1000 slack[9] + 1000 slack[10] + 1000 slack[11]
   + 1000 slack[12] + 1000 slack[13] + 1000 slack[14] + 1000 slack[15]
   + 1000 slack[16] + 1000 slack[17] + 1000 slack[18] + 1000 slack[19]
   + 1000 slack[20] + 1000 slack[21] + 1000 slack[22] + 1000 slack[23]
   + 1000 slack[24] + 1000 slack[25] + 1000 slack[26] + 1000 slack[27]
   + 1000 slack[28] + 1000 slack[29] + 1000 slack[30] + 1000 slack[31]
   + 1000 slack[32] + 1000 slack[33] + 1000 slack[34] + 1000 slack[35]
   + 1000 slack[36] + 1000 slack[37] + 1000 slack[38] + 1000 slack[39]
   + 1000 slack[40] + 1000 slack[41] + 1000 slack[42] + 1000 slack[43]
   + 1000 slack[44] + 1000 slack[45] + 1000 slack[46] + 1000 slack[47]
   + 1000 slack[48] + 1000 slack[49] + C50 + C51 + C52 + C53 + C54 + C55
   + C56 + C57 + C58 + C59 + C60 + C61 + C62 + C63 + C64 + C65 + C66 + C67
   + C68 + C69 + C70 + C71 + C72 + C73 + C74 + C75 + C76 + C77 + C78 + C79
   + C80 + C81 + C82 + C83 + C84 + C85 + C86 + C87 + C88 + C89 + C90 + C91
   + C92 + C93 + C94 + C95 + C96 + C97 + C98 + C99 + C100 + C101 + C102
   + C103 + C104 + C105 + C106 + C107 + C108 + C109 + C110 + C111 + C112
   + C113 + C114 + C115 + C116 + C117 + C118 + C119 + C120 + C121 + C122
   + C123 + C124 + C125 + C126 + C127 + C128 + C129 + C130 + C131 + C132
   + C133 + C134 + C135 + C136 + C137 + C138 + C139 + C140 + C141 + C142
   + C143 + C144 + C145 + C146 + C147 + C148 + C149 + C150 + C151 + C152
   + C153 + C154 + C155 + C156 + C157 + C158 + C159 + C160 + C161 + C162
   + C163 + C164 + C165 + C166 + C167 + C168 + C169 + C170 + C171 + C172
   + C173 + C174 + C175 + C176 + C177 + C178 + C179 + C180 + C181 + C182
   + C183 + C184 + C185 + C186 + C187 + C188 + C189
Subject To
 R0: slack[0] + 3 C50 + 3 C111 >= 102
 R1: slack[1] + 5 C51 + C119 + 5 C121 + 2 C126 >= 36
 R2: slack[2] + 27 C52 + 2 C120 + C125 + C129 + 2 C130 + 2 C133 + C134
   + 4 C136 + 2 C153 + 2 C162 + C164 + C165 + C170 + 2 C182 >= 176
 R3: slack[3] + 4 C53 + 4 C122 >= 32
 R4: slack[4] + 5 C54 + C124 + 5 C125 >= 159
 R5: slack[5] + 4 C55 + 2 C136 + 2 C137 + 3 C138 + 3 C139 + C148 + C149
   + 3 C151 + C168 + C169 >= 118
 R6: slack[6] + 21 C56 + C104 + C115 + C129 + C132 + C134 + C137 + 4 C138
   + C150 + C152 + C158 + C174 + 19 C183 + 5 C188 >= 156
 R7: slack[7] + 16 C57 + C139 + C146 + 2 C148 + 3 C152 + 3 C153 + C177
   + C180 >= 92
 R8: slack[8] + 3 C58 + C106 + 2 C107 + 3 C109 + C180 + 2 C181 + 3 C182
   >= 165
 R9: slack[9] + 13 C59 + 2 C143 + C144 + C145 + 10 C146 + C154 + 5 C155
   + C183 >= 30
 R10: slack[10] + 3 C60 + 3 C105 + C147 + 2 C149 + C173 >= 5
 R11: slack[11] + 3 C61 + 3 C110 + 3 C115 + 2 C176 + 3 C177 >= 44
 R12: slack[12] + 4 C62 + 2 C118 + C119 + 4 C120 + 4 C166 >= 175
 R13: slack[13] + 4 C63 + C100 + 2 C107 + 2 C108 + 2 C161 + 2 C165 >= 190
 R14: slack[14] + 3 C64 + 3 C101 + 3 C104 + 3 C172 + C175 >= 144
 R15: slack[15] + 3 C65 + C136 + C137 + C170 + 2 C173 + 2 C179 >= 21
 R16: slack[16] + 9 C66 + C124 + 7 C127 + C137 + 8 C141 + 8 C142 >= 98
 R17: slack[17] + 3 C67 + 3 C114 + C178 + C181 + 2 C184 + C185 + 3 C187
   + C188 + C189 >= 123
 R18: slack[18] + 10 C68 + C126 + 8 C133 + C156 + 7 C157 + 9 C158 >= 153
 R19: slack[19] + 75 C69 + C100 + 2 C101 + C110 + C111 + 2 C187 >= 39
 R20: slack[20] + 10 C50 + 7 C51 + 2 C52 + 6 C53 + 5 C54 + 2 C55 + C56
   + C57 + 11 C58 + 13 C60 + 10 C61 + 8 C62 + 10 C63 + 14 C64 + 2 C65
   + 4 C66 + 9 C67 + 3 C68 + 75 C70 + 13 C71 + 6 C73 + 5 C75 + 7 C76
   + 4 C77 + 3 C78 + 5 C79 + 8 C83 + 17 C84 + 13 C85 + 7 C86 + 10 C88
   + 9 C89 + 12 C90 + C91 + 2 C92 + C93 + 5 C95 + 9 C96 + 3 C97 + 10 C98
   + 3 C99 + 3 C162 + C166 + C174 + C184 >= 32
 R21: slack[21] + 3 C71 + 3 C103 + 2 C143 + 3 C144 >= 30
 R22: slack[22] + 14 C72 + C140 + 2 C146 + 10 C147 + 9 C148 + C164 + 2 C181
   >= 102
 R23: slack[23] + 4 C73 + 4 C123 + C165 + C170 + C186 + C189 >= 83
 R24: slack[24] + 8 C74 + 2 C150 + C151 + 4 C152 + 5 C155 + C161 + C164
   + 7 C167 >= 83
 R25: slack[25] + 12 C75 + C112 + C115 + 12 C130 + C166 + C175 >= 66
 R26: slack[26] + 3 C76 + C118 + 2 C119 >= 9
 R27: slack[27] + 12 C77 + C128 + 12 C131 + C142 + C144 + 9 C169 + C175
   + C180 + 2 C184 >= 131
 R28: slack[28] + 6 C78 + 6 C132 + C172 + 4 C178 + 2 C179 + 4 C185 + 3 C188
   + 2 C189 >= 196
 R29: slack[29] + 4 C79 + 3 C124 >= 47
 R30: slack[30] + 12 C80 + 2 C149 + 8 C150 + 5 C170 + C171 + C176 + C177
   >= 90
 R31: slack[31] + 10 C81 >= 39
 R32: slack[32] + 39 C82 + C106 + C121 + 2 C122 + 2 C123 + 2 C136 + C137
   + 2 C139 + C140 + C144 + 35 C145 + C149 + C150 + C151 + C152 + 2 C159
   + C164 + C168 + 2 C169 + C171 + 3 C174 + 3 C182 + 4 C187 >= 167
 R33: slack[33] + 7 C83 + C110 + C111 + C112 + C113 + C114 + 2 C127
   + 2 C157 + 6 C160 >= 151
 R34: slack[34] + 3 C84 + 3 C100 + 3 C140 + 3 C186 >= 38
 R35: slack[35] + 3 C85 + 3 C102 + 2 C126 >= 125
 R36: slack[36] + 7 C86 + C116 + 2 C118 >= 8
 R37: slack[37] + 4 C87 + C152 + 3 C153 + 3 C156 + 3 C164 + C184 >= 144
 R38: slack[38] + 3 C88 + 2 C112 + 3 C116 + 3 C117 + 3 C128 + C165 + 3 C174
   + 2 C175 + 2 C180 >= 176
 R39: slack[39] + 4 C89 + C112 + 4 C113 + 4 C162 + 3 C163 + 3 C171 >= 141
 R40: slack[40] + 5 C90 + C101 + C103 + C105 + 4 C106 >= 51
 R41: slack[41] + 6 C91 + C139 + 2 C176 + C189 >= 11
 R42: slack[42] + 26 C92 + C102 + C120 + 2 C121 + C122 + C123 + C125 + C128
   + 2 C157 + C179 + C183 + 2 C185 >= 154
 R43: slack[43] + 11 C93 + C138 + C142 + C151 + C158 + 10 C159 + 5 C161
   + 3 C163 >= 168
 R44: slack[44] + 53 C94 + C106 + C115 + C124 + C127 + C128 + 2 C129
   + 3 C131 + 2 C134 + 2 C135 + C137 + 9 C141 + 2 C143 + 2 C145 + 2 C146
   + C147 + C149 + C150 + 2 C151 + 3 C159 + C162 + C165 + C166 + 2 C172
   + C176 + 4 C178 >= 161
 R45: slack[45] + 7 C95 + C117 + C140 + 2 C143 + 7 C154 + C167 >= 16
 R46: slack[46] + 6 C96 + C102 + C104 + C109 + 6 C129 + 5 C168 >= 130
 R47: slack[47] + 12 C97 + 2 C133 + 11 C134 + 2 C156 + C163 + C173 >= 58
 R48: slack[48] + 3 C98 + 2 C108 >= 153
 R49: slack[49] + 4 C99 + 4 C135 + C160 + C171 >= 41
Bounds
End
